 #OUTPUT
 $NOD_VALUES
   PRESSURE1
   TEMPERATURE1
   DISPLACEMENT_X1
   DISPLACEMENT_Y1
   STRESS_XX
   STRESS_XY
   STRESS_YY
   STRESS_ZZ
   STRAIN_XX
   STRAIN_XY
   STRAIN_YY
   STRAIN_ZZ
;   STRAIN_PLS
   SATURATION1 
   VELOCITY_X1
   VELOCITY_Y1
   SALT
   $GEO_TYPE
   POLYLINE unten
 $DAT_TYPE
   TECPLOT
 $TIM_TYPE
8.640000E+04	;	1
1.728000E+05	;	2
4.320000E+05	;	5
8.640000E+05	;	10
2.592000E+06	;	30
5.184000E+06	;	60
8.640000E+06	;	100
1.728000E+07	;	200
3.153600E+07	;	365
4.320000E+07	;	500
6.307200E+07	;	730
7.257600E+07	;	840
  
   
#STOP
